min: 1.0Emax;
1.0Emax >= 1.0E_0_chef;
1.0Emax >= 1.0E_7_chef;
1.0Emax >= 1.0E_8_chef;
1.0Emax >= 1.0E_9_kettle;
1.0Emax >= 1.0E_9_hobsub1;
1.0Emax >= 1.0E_9_hobsub2;
1.0Emax >= 1.0E_10_chef;
1.0Emax >= 1.0E_11_worktop;
1.0Emax >= 1.0E_12_chef;
1.0Emax >= 1.0E_13_chef;
1.0E_0_chef >= 10.0X_0_chef;
1.0E_7_chef >= 10.0X_7_chef;
1.0E_8_chef >= 10.0X_8_chef;
1.0E_9_kettle >= 120.0X_9_kettle;
1.0E_9_hobsub1 >= 400.0X_9_hobsub1;
1.0E_9_hobsub2 >= 400.0X_9_hobsub2;
1.0E_10_chef >= 7.0X_10_chef;
1.0E_11_worktop >= 300.0X_11_worktop;
1.0E_12_chef >= 5.0X_12_chef;
1.0E_13_chef >= 7.0X_13_chef;
1.0E_9_kettle >= 1.0E_8_chef + 120.0X_9_kettle;
1.0E_9_hobsub1 >= 1.0E_8_chef + 400.0X_9_hobsub1;
1.0E_9_hobsub2 >= 1.0E_8_chef + 400.0X_9_hobsub2;
1.0E_10_chef >= 1.0E_7_chef + 7.0X_10_chef;
1.0E_10_chef >= 1.0E_9_kettle + 7.0X_10_chef;
1.0E_10_chef >= 1.0E_9_hobsub1 + 7.0X_10_chef;
1.0E_10_chef >= 1.0E_9_hobsub2 + 7.0X_10_chef;
1.0E_11_worktop >= 1.0E_10_chef + 300.0X_11_worktop;
1.0E_12_chef >= 1.0E_11_worktop + 5.0X_12_chef;
1.0E_13_chef >= 1.0E_0_chef + 7.0X_13_chef;
1.0E_13_chef >= 1.0E_12_chef + 7.0X_13_chef;
1.0dummy_1 + 1.0X_0_chef = 1.0;
1.0dummy_2 + 1.0X_7_chef = 1.0;
1.0dummy_3 + 1.0X_8_chef = 1.0;
1.0X_9_kettle + 1.0X_9_hobsub1 + 1.0X_9_hobsub2 = 1.0;
1.0dummy_5 + 1.0X_10_chef = 1.0;
1.0dummy_6 + 1.0X_11_worktop = 1.0;
1.0dummy_7 + 1.0X_12_chef = 1.0;
1.0dummy_8 + 1.0X_13_chef = 1.0;
1.0dummy_1 + 1.0dummy_2 + 1.0dummy_3 + 1.0dummy_5 + 1.0dummy_6 + 1.0dummy_7 + 1.0dummy_8 = 0.0;
1.0E_0_chef - 1.0E_7_chef >= 10.0X_0_chef - 9999999.0Y_0_7;
1.0E_0_chef - 1.0E_8_chef >= 10.0X_0_chef - 9999999.0Y_0_8;
1.0E_0_chef - 1.0E_10_chef >= 10.0X_0_chef - 9999999.0Y_0_10;
1.0E_0_chef - 1.0E_12_chef >= 10.0X_0_chef - 9999999.0Y_0_12;
1.0E_0_chef - 1.0E_13_chef >= 10.0X_0_chef - 9999999.0Y_0_13;
1.0E_7_chef - 1.0E_0_chef >= 10.0X_7_chef - 9999999.0Y_7_0;
1.0E_7_chef - 1.0E_8_chef >= 10.0X_7_chef - 9999999.0Y_7_8;
1.0E_7_chef - 1.0E_10_chef >= 10.0X_7_chef - 9999999.0Y_7_10;
1.0E_7_chef - 1.0E_12_chef >= 10.0X_7_chef - 9999999.0Y_7_12;
1.0E_7_chef - 1.0E_13_chef >= 10.0X_7_chef - 9999999.0Y_7_13;
1.0E_8_chef - 1.0E_0_chef >= 10.0X_8_chef - 9999999.0Y_8_0;
1.0E_8_chef - 1.0E_7_chef >= 10.0X_8_chef - 9999999.0Y_8_7;
1.0E_8_chef - 1.0E_10_chef >= 10.0X_8_chef - 9999999.0Y_8_10;
1.0E_8_chef - 1.0E_12_chef >= 10.0X_8_chef - 9999999.0Y_8_12;
1.0E_8_chef - 1.0E_13_chef >= 10.0X_8_chef - 9999999.0Y_8_13;
1.0E_10_chef - 1.0E_0_chef >= 7.0X_10_chef - 9999999.0Y_10_0;
1.0E_10_chef - 1.0E_7_chef >= 7.0X_10_chef - 9999999.0Y_10_7;
1.0E_10_chef - 1.0E_8_chef >= 7.0X_10_chef - 9999999.0Y_10_8;
1.0E_10_chef - 1.0E_12_chef >= 7.0X_10_chef - 9999999.0Y_10_12;
1.0E_10_chef - 1.0E_13_chef >= 7.0X_10_chef - 9999999.0Y_10_13;
1.0E_12_chef - 1.0E_0_chef >= 5.0X_12_chef - 9999999.0Y_12_0;
1.0E_12_chef - 1.0E_7_chef >= 5.0X_12_chef - 9999999.0Y_12_7;
1.0E_12_chef - 1.0E_8_chef >= 5.0X_12_chef - 9999999.0Y_12_8;
1.0E_12_chef - 1.0E_10_chef >= 5.0X_12_chef - 9999999.0Y_12_10;
1.0E_12_chef - 1.0E_13_chef >= 5.0X_12_chef - 9999999.0Y_12_13;
1.0E_13_chef - 1.0E_0_chef >= 7.0X_13_chef - 9999999.0Y_13_0;
1.0E_13_chef - 1.0E_7_chef >= 7.0X_13_chef - 9999999.0Y_13_7;
1.0E_13_chef - 1.0E_8_chef >= 7.0X_13_chef - 9999999.0Y_13_8;
1.0E_13_chef - 1.0E_10_chef >= 7.0X_13_chef - 9999999.0Y_13_10;
1.0E_13_chef - 1.0E_12_chef >= 7.0X_13_chef - 9999999.0Y_13_12;
1.0E_7_chef - 1.0E_0_chef >= 10.0X_0_chef - 9999999.0 + 9999999.0Y_0_7;
1.0E_8_chef - 1.0E_0_chef >= 10.0X_0_chef - 9999999.0 + 9999999.0Y_0_8;
1.0E_10_chef - 1.0E_0_chef >= 7.0X_0_chef - 9999999.0 + 9999999.0Y_0_10;
1.0E_12_chef - 1.0E_0_chef >= 5.0X_0_chef - 9999999.0 + 9999999.0Y_0_12;
1.0E_13_chef - 1.0E_0_chef >= 7.0X_0_chef - 9999999.0 + 9999999.0Y_0_13;
1.0E_0_chef - 1.0E_7_chef >= 10.0X_7_chef - 9999999.0 + 9999999.0Y_7_0;
1.0E_8_chef - 1.0E_7_chef >= 10.0X_7_chef - 9999999.0 + 9999999.0Y_7_8;
1.0E_10_chef - 1.0E_7_chef >= 7.0X_7_chef - 9999999.0 + 9999999.0Y_7_10;
1.0E_12_chef - 1.0E_7_chef >= 5.0X_7_chef - 9999999.0 + 9999999.0Y_7_12;
1.0E_13_chef - 1.0E_7_chef >= 7.0X_7_chef - 9999999.0 + 9999999.0Y_7_13;
1.0E_0_chef - 1.0E_8_chef >= 10.0X_8_chef - 9999999.0 + 9999999.0Y_8_0;
1.0E_7_chef - 1.0E_8_chef >= 10.0X_8_chef - 9999999.0 + 9999999.0Y_8_7;
1.0E_10_chef - 1.0E_8_chef >= 7.0X_8_chef - 9999999.0 + 9999999.0Y_8_10;
1.0E_12_chef - 1.0E_8_chef >= 5.0X_8_chef - 9999999.0 + 9999999.0Y_8_12;
1.0E_13_chef - 1.0E_8_chef >= 7.0X_8_chef - 9999999.0 + 9999999.0Y_8_13;
1.0E_0_chef - 1.0E_10_chef >= 10.0X_10_chef - 9999999.0 + 9999999.0Y_10_0;
1.0E_7_chef - 1.0E_10_chef >= 10.0X_10_chef - 9999999.0 + 9999999.0Y_10_7;
1.0E_8_chef - 1.0E_10_chef >= 10.0X_10_chef - 9999999.0 + 9999999.0Y_10_8;
1.0E_12_chef - 1.0E_10_chef >= 5.0X_10_chef - 9999999.0 + 9999999.0Y_10_12;
1.0E_13_chef - 1.0E_10_chef >= 7.0X_10_chef - 9999999.0 + 9999999.0Y_10_13;
1.0E_0_chef - 1.0E_12_chef >= 10.0X_12_chef - 9999999.0 + 9999999.0Y_12_0;
1.0E_7_chef - 1.0E_12_chef >= 10.0X_12_chef - 9999999.0 + 9999999.0Y_12_7;
1.0E_8_chef - 1.0E_12_chef >= 10.0X_12_chef - 9999999.0 + 9999999.0Y_12_8;
1.0E_10_chef - 1.0E_12_chef >= 7.0X_12_chef - 9999999.0 + 9999999.0Y_12_10;
1.0E_13_chef - 1.0E_12_chef >= 7.0X_12_chef - 9999999.0 + 9999999.0Y_12_13;
1.0E_0_chef - 1.0E_13_chef >= 10.0X_13_chef - 9999999.0 + 9999999.0Y_13_0;
1.0E_7_chef - 1.0E_13_chef >= 10.0X_13_chef - 9999999.0 + 9999999.0Y_13_7;
1.0E_8_chef - 1.0E_13_chef >= 10.0X_13_chef - 9999999.0 + 9999999.0Y_13_8;
1.0E_10_chef - 1.0E_13_chef >= 7.0X_13_chef - 9999999.0 + 9999999.0Y_13_10;
1.0E_12_chef - 1.0E_13_chef >= 5.0X_13_chef - 9999999.0 + 9999999.0Y_13_12;
bin X_0_chef,X_7_chef,X_8_chef,X_9_kettle,X_9_hobsub1,X_9_hobsub2,X_10_chef,X_11_worktop,X_12_chef,X_13_chef;
bin Y_0_7,Y_0_8,Y_0_10,Y_0_12,Y_0_13,Y_7_0,Y_7_8,Y_7_10,Y_7_12,Y_7_13,Y_8_0,Y_8_7,Y_8_10,Y_8_12,Y_8_13,Y_10_0,Y_10_7,Y_10_8,Y_10_12,Y_10_13,Y_12_0,Y_12_7,Y_12_8,Y_12_10,Y_12_13,Y_13_0,Y_13_7,Y_13_8,Y_13_10,Y_13_12;